100 5341
910 927 1008 412 418 481 634 772 543 1067 583 291 1091 438 631 316 718 714 1171 1098 306 1103 748 832 1001 583 1032 472 802 737 365 1032 648 311 508 1125 577 1087 439 916 444 606 1254 507 347 1099 645 1029 333 750 895 803 1195 885 768 322 739 1188 492 1139 736 378 534 1014 803 1125 1185 930 1021 846 561 655 889 1006 327 1138 934 589 996 828 547 958 846 538 609 901 634 223 1116 935 366 762 586 277 948 831 513 1260 1129 589 
710 727 808 212 218 281 434 572 343 867 383 91 891 138 431 116 518 514 971 898 106 903 548 632 801 383 832 272 602 537 165 832 348 111 308 925 377 887 239 716 244 406 954 307 147 899 445 829 133 450 695 603 995 685 468 122 539 988 192 939 536 78 234 814 603 925 985 630 821 646 361 455 689 806 127 938 734 389 696 528 347 758 646 338 409 701 434 23 916 735 66 462 386 77 748 631 313 960 929 389 
